SAT
-66 91 5 -62 68 -70 44 -61 -20 71 50 19 -85 -6 -48 -94 33 -34 43 23 -98 18 69 -13 40 11 4 88 74 64 -82 86 29 -28 75 -47 100 -52 -38 -55 27 -41 58 -17 -3 -46 -7 30 -12 -14 97 -9 -73 -83 -56 -67 -10 -21 -95 -78 24 -79 60 99 -42 -89 26 84 -65 -77 96 36 16 -2 81 31 22 -15 -93 53 -92 -1 87 8 -63 76 72 25 32 37 -51 -35 -90 49 59 39 54 -80 57 45 0
